networks/zoo_110_595/zoo_110_595-lower.txt
Number of groups: 44
Flow 1: {1 4 0} {4 2 0} {2 57 0} 
Flow 2: {1 26 0} {26 3 0} {3 58 0} 
Flow 3: {32 6 0} {6 61 0} 
Flow 3: {26 32 0} Flow 4: {32 7 0} {7 62 0} 
Flow 5: {6 5 0} {5 8 0} {8 63 0} 
Flow 6: {5 10 0} {10 65 0} 
Flow 7: {7 14 0} {14 39 0} {39 42 0} {42 25 0} {25 17 0} {17 11 0} {11 66 0} 
Flow 8: {11 12 0} {12 67 0} 
Flow 9: {14 69 0} 
Flow 10: {17 18 0} {18 73 0} 
Flow 11: {18 19 0} {19 74 0} 
Flow 12: {11 20 0} {20 21 0} {21 76 0} 
Flow 13: {21 22 0} {22 77 0} 
Flow 14: {22 23 0} {23 78 0} 
Flow 15: {12 15 0} {15 24 0} {24 79 0} 
Flow 16: {25 80 0} 
Flow 17: {26 34 0} {34 33 0} {33 30 0} {30 85 0} 
Flow 18: {32 87 0} 
Flow 19: {33 88 0} 
Flow 20: {34 89 0} 
Flow 21: {42 36 0} {36 91 0} 
Flow 22: {25 37 0} {37 92 0} 
Flow 23: {42 97 0} 
Flow 24: {42 43 0} {43 44 0} {44 99 0} 
Flow 25: {3 46 0} {46 101 0} 
Flow 26: {3 47 0} {47 102 0} 
Flow 27: {7 49 0} {49 50 0} {50 105 0} 
Flow 28: {46 54 0} {54 51 0} {51 106 0} 
Flow 29: {26 1 0} {1 56 0} 
Flow 29: {3 26 0} Flow 30: {3 4 0} Flow 31: {4 59 0} 
Flow 32: {5 60 0} 
Flow 39: {1 13 0} {13 68 0} 
Flow 41: {15 70 0} 
Flow 44: {20 75 0} 
Flow 50: {15 16 0} {16 29 0} {29 84 0} 
Flow 52: {23 31 0} {31 86 0} 
Flow 58: {39 94 0} 
Flow 63: {51 50 0} Flow 65: {46 55 0} {55 110 0} 
Flow 66: {8 5 0} {5 6 0} {6 32 0} {32 26 0} Flow 68: {9 8 0} Flow 69: {9 10 0} {10 14 0} {14 7 0} Flow 71: {10 39 0} Flow 76: {14 30 0} Flow 78: {14 35 0} {35 33 0} Flow 79: {33 34 0} Flow 80: {14 51 0} Flow 82: {10 5 0} Flow 96: {7 32 0} {12 11 0} {11 17 0} {17 25 0} {25 42 0} {42 39 0} {39 14 0} Flow 97: {39 10 0} Flow 98: {13 1 0} Flow 104: {14 10 0} Flow 105: {7 6 0} Flow 113: {16 71 0} 
Flow 122: {26 27 0} {27 82 0} 
Flow 131: {10 9 0} {9 38 0} {38 93 0} 
Flow 133: {14 40 0} {40 41 0} {41 96 0} 
Flow 136: {7 55 0} {55 46 0} Flow 140: {51 52 0} {52 107 0} 
Flow 141: {51 54 0} {54 109 0} 
Flow 172: {17 36 0} Flow 175: {39 40 0} Flow 184: {19 18 0} {18 17 0} Flow 189: {19 20 0} {20 12 0} Flow 192: {19 21 0} Flow 194: {22 24 0} Flow 205: {20 11 0} Flow 220: {20 19 0} Flow 244: {21 19 0} Flow 248: {22 21 0} Flow 253: {21 20 0} Flow 269: {23 22 0} Flow 283: {24 15 0} {15 12 0} Flow 286: {24 22 0} Flow 295: {27 26 0} Flow 299: {29 16 0} {16 15 0} {28 29 0} Flow 304: {28 31 0} {31 23 0} Flow 317: {12 20 0} Flow 322: {30 33 0} {33 32 0} Flow 325: {30 14 0} Flow 331: {34 27 0} {27 13 0} Flow 365: {32 33 0} Flow 371: {34 26 0} Flow 393: {35 14 0} Flow 406: {35 30 0} Flow 417: {37 25 0} Flow 420: {38 9 0} Flow 458: {40 14 0} Flow 465: {40 39 0} Flow 495: {46 3 0} Flow 498: {55 7 0} Flow 501: {51 14 0} Flow 523: {47 3 0} Flow 536: {49 7 0} Flow 541: {50 51 0} Flow 542: {54 46 0} Flow 543: {50 49 0} Flow 592: {52 54 0} Flow 593: {52 51 0} Time taken running everything: 0 seconds
