networks/zoo_110_595/zoo_110_595-lower.sol
<?xml version = "1.0" encoding="UTF-8" standalone="yes"?>
<CPLEXSolution version="1.2">
 <header
   problemName="networks/zoo_110_595/zoo_110_595.lp"
   solutionName="incumbent"
   solutionIndex="-1"
   objectiveValue="60"
   solutionTypeValue="3"
   solutionTypeString="primal"
   solutionStatusValue="101"
   solutionStatusString="integer optimal solution"
   solutionMethodString="mip"
   primalFeasible="1"
   dualFeasible="1"
   MIPNodes="0"
   MIPIterations="14796"
   writeLevel="3"/>
 <quality
   epInt="1.0000000000000001e-05"
   epRHS="9.9999999999999995e-07"
   maxIntInfeas="0"
   maxPrimalInfeas="1.7763568394002505e-15"
   maxX="4"
   maxSlack="10"/>
 <variables>
  <variable name="Y(21,36)" index="1955" value="1"/>
  <variable name="Y(32,5)" index="2980" value="1"/>
  <variable name="Y(41,15)" index="3854" value="1"/>
  <variable name="Y(58,39)" index="5510" value="1"/>
  <variable name="Y(65,55)" index="6195" value="1"/>
  <variable name="Y(73,19)" index="6930" value="1"/>
  <variable name="Y(77,32)" index="7327" value="1"/>
  <variable name="Y(78,14)" index="7405" value="1"/>
  <variable name="Y(98,1)" index="9312" value="1"/>
  <variable name="Y(131,38)" index="12517" value="1"/>
  <variable name="Y(146,4)" index="13923" value="1"/>
  <variable name="Y(157,16)" index="14991" value="1"/>
  <variable name="Y(182,52)" index="17425" value="1"/>
  <variable name="Y(189,19)" index="18066" value="1"/>
  <variable name="Y(194,24)" index="18551" value="1"/>
  <variable name="Y(214,11)" index="20458" value="1"/>
  <variable name="Y(220,18)" index="21041" value="1"/>
  <variable name="Y(233,17)" index="22288" value="1"/>
  <variable name="Y(236,41)" index="22600" value="1"/>
  <variable name="Y(252,21)" index="24116" value="1"/>
  <variable name="Y(253,12)" index="24203" value="1"/>
  <variable name="Y(259,25)" index="24792" value="1"/>
  <variable name="Y(284,11)" index="27178" value="1"/>
  <variable name="Y(286,21)" index="27380" value="1"/>
  <variable name="Y(297,5)" index="28420" value="1"/>
  <variable name="Y(298,50)" index="28559" value="1"/>
  <variable name="Y(307,22)" index="29397" value="1"/>
  <variable name="Y(313,16)" index="29967" value="1"/>
  <variable name="Y(317,20)" index="30355" value="1"/>
  <variable name="Y(320,51)" index="30672" value="1"/>
  <variable name="Y(331,27)" index="31706" value="1"/>
  <variable name="Y(376,14)" index="36013" value="1"/>
  <variable name="Y(385,37)" index="36900" value="1"/>
  <variable name="Y(387,47)" index="37101" value="1"/>
  <variable name="Y(390,1)" index="37344" value="1"/>
  <variable name="Y(394,8)" index="37735" value="1"/>
  <variable name="Y(406,35)" index="38914" value="1"/>
  <variable name="Y(418,10)" index="40041" value="1"/>
  <variable name="Y(423,10)" index="40521" value="1"/>
  <variable name="Y(434,13)" index="41580" value="1"/>
  <variable name="Y(441,23)" index="42262" value="1"/>
  <variable name="Y(462,7)" index="44262" value="1"/>
  <variable name="Y(473,15)" index="45326" value="1"/>
  <variable name="Y(481,42)" index="46121" value="1"/>
  <variable name="Y(483,46)" index="46316" value="1"/>
  <variable name="Y(496,2)" index="47521" value="1"/>
  <variable name="Y(498,6)" index="47717" value="1"/>
  <variable name="Y(512,30)" index="49085" value="1"/>
  <variable name="Y(519,44)" index="49771" value="1"/>
  <variable name="Y(533,34)" index="51105" value="1"/>
  <variable name="Y(541,51)" index="51888" value="1"/>
  <variable name="Y(546,33)" index="52352" value="1"/>
  <variable name="Y(566,20)" index="54259" value="1"/>
  <variable name="Y(572,27)" index="54842" value="1"/>
  <variable name="Y(573,29)" index="54940" value="1"/>
  <variable name="Y(575,31)" index="55134" value="1"/>
  <variable name="Y(583,14)" index="55885" value="1"/>
  <variable name="Y(590,54)" index="56594" value="1"/>
  <variable name="Y(592,3)" index="56738" value="1"/>
  <variable name="Y(593,52)" index="56881" value="1"/>
  <variable name="X(1,4,146)" index="57265" value="1"/>
  <variable name="X(1,13,434)" index="58148" value="1"/>
  <variable name="X(1,26,98)" index="58407" value="1"/>
  <variable name="X(1,56,390)" index="59294" value="1"/>
  <variable name="X(2,57,496)" index="59995" value="1"/>
  <variable name="X(3,4,496)" index="60590" value="1"/>
  <variable name="X(3,26,533)" index="61222" value="1"/>
  <variable name="X(3,46,65)" index="61349" value="1"/>
  <variable name="X(3,47,387)" index="62266" value="1"/>
  <variable name="X(3,58,592)" index="63066" value="1"/>
  <variable name="X(4,2,496)" index="63565" value="1"/>
  <variable name="X(4,59,146)" index="63810" value="1"/>
  <variable name="X(5,6,77)" index="64336" value="1"/>
  <variable name="X(5,8,394)" index="65248" value="1"/>
  <variable name="X(5,10,297)" index="65746" value="1"/>
  <variable name="X(5,60,32)" index="66076" value="1"/>
  <variable name="X(6,5,297)" index="66936" value="1"/>
  <variable name="X(6,32,77)" index="67311" value="1"/>
  <variable name="X(6,61,498)" index="68327" value="1"/>
  <variable name="X(7,6,498)" index="68922" value="1"/>
  <variable name="X(7,14,58)" index="69077" value="1"/>
  <variable name="X(7,32,546)" index="70160" value="1"/>
  <variable name="X(7,49,298)" index="70507" value="1"/>
  <variable name="X(7,55,483)" index="71287" value="1"/>
  <variable name="X(7,62,462)" index="71861" value="1"/>
  <variable name="X(8,5,77)" index="72071" value="1"/>
  <variable name="X(8,63,394)" index="72983" value="1"/>
  <variable name="X(9,8,77)" index="73261" value="1"/>
  <variable name="X(9,10,423)" index="74202" value="1"/>
  <variable name="X(9,38,131)" index="74505" value="1"/>
  <variable name="X(10,5,394)" index="75363" value="1"/>
  <variable name="X(10,9,131)" index="75695" value="1"/>
  <variable name="X(10,14,78)" index="76237" value="1"/>
  <variable name="X(10,39,423)" index="77177" value="1"/>
  <variable name="X(10,65,418)" index="77767" value="1"/>
  <variable name="X(11,12,473)" index="78417" value="1"/>
  <variable name="X(11,17,284)" index="78823" value="1"/>
  <variable name="X(11,20,566)" index="79700" value="1"/>
  <variable name="X(11,66,214)" index="79943" value="1"/>
  <variable name="X(12,11,284)" index="80608" value="1"/>
  <variable name="X(12,15,473)" index="81392" value="1"/>
  <variable name="X(12,20,317)" index="81831" value="1"/>
  <variable name="X(12,67,253)" index="82362" value="1"/>
  <variable name="X(13,1,98)" index="82802" value="1"/>
  <variable name="X(13,68,434)" index="83733" value="1"/>
  <variable name="X(14,7,462)" index="84356" value="1"/>
  <variable name="X(14,10,394)" index="84883" value="1"/>
  <variable name="X(14,30,512)" index="85596" value="1"/>
  <variable name="X(14,35,78)" index="85757" value="1"/>
  <variable name="X(14,39,58)" index="86332" value="1"/>
  <variable name="X(14,40,583)" index="87452" value="1"/>
  <variable name="X(14,51,182)" index="87646" value="1"/>
  <variable name="X(14,69,376)" index="88435" value="1"/>
  <variable name="X(15,12,284)" index="88938" value="1"/>
  <variable name="X(15,16,573)" index="89822" value="1"/>
  <variable name="X(15,24,473)" index="90317" value="1"/>
  <variable name="X(15,70,41)" index="90480" value="1"/>
  <variable name="X(16,15,313)" index="91347" value="1"/>
  <variable name="X(16,29,573)" index="92202" value="1"/>
  <variable name="X(16,71,157)" index="92381" value="1"/>
  <variable name="X(17,11,473)" index="93292" value="1"/>
  <variable name="X(17,18,73)" index="93487" value="1"/>
  <variable name="X(17,25,259)" index="94268" value="1"/>
  <variable name="X(17,36,233)" index="94837" value="1"/>
  <variable name="X(18,17,259)" index="95458" value="1"/>
  <variable name="X(18,19,73)" index="95867" value="1"/>
  <variable name="X(18,73,220)" index="96609" value="1"/>
  <variable name="X(19,18,220)" index="97204" value="1"/>
  <variable name="X(19,20,189)" index="97768" value="1"/>
  <variable name="X(19,21,194)" index="98368" value="1"/>
  <variable name="X(19,74,73)" index="98842" value="1"/>
  <variable name="X(20,11,214)" index="99578" value="1"/>
  <variable name="X(20,12,253)" index="100212" value="1"/>
  <variable name="X(20,19,220)" index="100774" value="1"/>
  <variable name="X(20,21,317)" index="101466" value="1"/>
  <variable name="X(20,75,566)" index="102310" value="1"/>
  <variable name="X(21,19,252)" index="102591" value="1"/>
  <variable name="X(21,20,253)" index="103187" value="1"/>
  <variable name="X(21,22,194)" index="103723" value="1"/>
  <variable name="X(21,76,286)" index="104410" value="1"/>
  <variable name="X(22,21,286)" index="105005" value="1"/>
  <variable name="X(22,23,441)" index="105755" value="1"/>
  <variable name="X(22,24,194)" index="106103" value="1"/>
  <variable name="X(22,77,307)" index="106811" value="1"/>
  <variable name="X(23,22,307)" index="107406" value="1"/>
  <variable name="X(23,31,575)" index="108269" value="1"/>
  <variable name="X(23,78,441)" index="108730" value="1"/>
  <variable name="X(24,15,284)" index="109168" value="1"/>
  <variable name="X(24,22,286)" index="109765" value="1"/>
  <variable name="X(24,79,194)" index="110268" value="1"/>
  <variable name="X(25,17,73)" index="110742" value="1"/>
  <variable name="X(25,37,385)" index="111649" value="1"/>
  <variable name="X(25,42,418)" index="112277" value="1"/>
  <variable name="X(25,80,259)" index="112713" value="1"/>
  <variable name="X(26,1,390)" index="113439" value="1"/>
  <variable name="X(26,3,387)" index="114031" value="1"/>
  <variable name="X(26,27,572)" index="114811" value="1"/>
  <variable name="X(26,32,297)" index="115131" value="1"/>
  <variable name="X(26,34,533)" index="115962" value="1"/>
  <variable name="X(27,13,331)" index="116355" value="1"/>
  <variable name="X(27,26,297)" index="116916" value="1"/>
  <variable name="X(27,82,572)" index="117786" value="1"/>
  <variable name="X(28,29,313)" index="118122" value="1"/>
  <variable name="X(28,31,307)" index="118711" value="1"/>
  <variable name="X(29,16,313)" index="119312" value="1"/>
  <variable name="X(29,84,573)" index="120167" value="1"/>
  <variable name="X(30,14,376)" index="120565" value="1"/>
  <variable name="X(30,33,331)" index="121115" value="1"/>
  <variable name="X(30,85,512)" index="121891" value="1"/>
  <variable name="X(31,23,307)" index="122281" value="1"/>
  <variable name="X(31,86,575)" index="123144" value="1"/>
  <variable name="X(32,6,297)" index="123461" value="1"/>
  <variable name="X(32,7,298)" index="124057" value="1"/>
  <variable name="X(32,26,390)" index="124744" value="1"/>
  <variable name="X(32,33,546)" index="125495" value="1"/>
  <variable name="X(32,87,77)" index="125621" value="1"/>
  <variable name="X(33,30,376)" index="126515" value="1"/>
  <variable name="X(33,32,390)" index="127124" value="1"/>
  <variable name="X(33,34,331)" index="127660" value="1"/>
  <variable name="X(33,88,546)" index="128470" value="1"/>
  <variable name="X(34,26,387)" index="128906" value="1"/>
  <variable name="X(34,27,331)" index="129445" value="1"/>
  <variable name="X(34,33,376)" index="130085" value="1"/>
  <variable name="X(34,89,533)" index="130837" value="1"/>
  <variable name="X(35,14,394)" index="131293" value="1"/>
  <variable name="X(35,30,406)" index="131900" value="1"/>
  <variable name="X(35,33,390)" index="132479" value="1"/>
  <variable name="X(36,91,21)" index="132705" value="1"/>
  <variable name="X(37,25,418)" index="133697" value="1"/>
  <variable name="X(37,92,385)" index="134259" value="1"/>
  <variable name="X(38,9,423)" index="134892" value="1"/>
  <variable name="X(38,93,131)" index="135195" value="1"/>
  <variable name="X(39,10,418)" index="136077" value="1"/>
  <variable name="X(39,14,182)" index="136436" value="1"/>
  <variable name="X(39,40,236)" index="137085" value="1"/>
  <variable name="X(39,42,481)" index="137925" value="1"/>
  <variable name="X(39,94,58)" index="138097" value="1"/>
  <variable name="X(40,14,462)" index="139096" value="1"/>
  <variable name="X(40,39,481)" index="139710" value="1"/>
  <variable name="X(40,41,236)" index="140060" value="1"/>
  <variable name="X(41,96,236)" index="140655" value="1"/>
  <variable name="X(42,25,73)" index="141087" value="1"/>
  <variable name="X(42,36,21)" index="141630" value="1"/>
  <variable name="X(42,39,418)" index="142622" value="1"/>
  <variable name="X(42,43,519)" index="143318" value="1"/>
  <variable name="X(42,97,481)" index="143875" value="1"/>
  <variable name="X(43,44,519)" index="144508" value="1"/>
  <variable name="X(44,99,519)" index="145103" value="1"/>
  <variable name="X(46,3,592)" index="145771" value="1"/>
  <variable name="X(46,54,512)" index="146286" value="1"/>
  <variable name="X(46,55,65)" index="146434" value="1"/>
  <variable name="X(46,101,483)" index="147447" value="1"/>
  <variable name="X(47,3,533)" index="148092" value="1"/>
  <variable name="X(47,102,387)" index="148541" value="1"/>
  <variable name="X(49,7,546)" index="149295" value="1"/>
  <variable name="X(49,50,298)" index="149642" value="1"/>
  <variable name="X(50,49,546)" index="150485" value="1"/>
  <variable name="X(50,51,541)" index="151075" value="1"/>
  <variable name="X(50,105,298)" index="151427" value="1"/>
  <variable name="X(51,14,512)" index="152236" value="1"/>
  <variable name="X(51,50,320)" index="152639" value="1"/>
  <variable name="X(51,52,182)" index="153096" value="1"/>
  <variable name="X(51,54,590)" index="154099" value="1"/>
  <variable name="X(51,106,541)" index="154645" value="1"/>
  <variable name="X(52,51,593)" index="155292" value="1"/>
  <variable name="X(52,54,592)" index="155886" value="1"/>
  <variable name="X(52,107,182)" index="156071" value="1"/>
  <variable name="X(54,46,592)" index="157076" value="1"/>
  <variable name="X(54,51,512)" index="157591" value="1"/>
  <variable name="X(54,109,590)" index="158264" value="1"/>
  <variable name="X(55,7,498)" index="158767" value="1"/>
  <variable name="X(55,46,483)" index="159347" value="1"/>
  <variable name="X(55,110,65)" index="159524" value="1"/>
  <variable name="C(21,36)" index="160210" value="1"/>
  <variable name="C(58,14)" index="160488" value="1"/>
  <variable name="C(58,39)" index="160489" value="2"/>
  <variable name="C(65,3)" index="160519" value="2"/>
  <variable name="C(65,46)" index="160520" value="3"/>
  <variable name="C(65,55)" index="160521" value="4"/>
  <variable name="C(73,25)" index="160559" value="1"/>
  <variable name="C(73,17)" index="160560" value="2"/>
  <variable name="C(73,18)" index="160561" value="2.9999999999999991"/>
  <variable name="C(73,19)" index="160562" value="3.9999999999999991"/>
  <variable name="C(77,8)" index="160587" value="1"/>
  <variable name="C(77,5)" index="160588" value="2"/>
  <variable name="C(77,6)" index="160589" value="3"/>
  <variable name="C(77,32)" index="160590" value="4"/>
  <variable name="C(78,14)" index="160593" value="1"/>
  <variable name="C(98,1)" index="160701" value="1"/>
  <variable name="C(131,9)" index="160893" value="1"/>
  <variable name="C(131,38)" index="160894" value="2"/>
  <variable name="C(146,4)" index="160970" value="1"/>
  <variable name="C(182,14)" index="161160" value="1"/>
  <variable name="C(182,51)" index="161161" value="2"/>
  <variable name="C(182,52)" index="161162" value="3"/>
  <variable name="C(194,21)" index="161236" value="1"/>
  <variable name="C(194,22)" index="161237" value="2"/>
  <variable name="C(194,24)" index="161238" value="3"/>
  <variable name="C(214,11)" index="161407" value="1"/>
  <variable name="C(220,19)" index="161437" value="1"/>
  <variable name="C(220,18)" index="161438" value="2"/>
  <variable name="C(236,40)" index="161525" value="1"/>
  <variable name="C(236,41)" index="161526" value="2"/>
  <variable name="C(253,20)" index="161686" value="1"/>
  <variable name="C(253,12)" index="161687" value="2"/>
  <variable name="C(259,17)" index="161712" value="1"/>
  <variable name="C(259,25)" index="161713" value="2"/>
  <variable name="C(284,15)" index="161951" value="1.0000000000000018"/>
  <variable name="C(284,12)" index="161952" value="2"/>
  <variable name="C(284,11)" index="161953" value="3"/>
  <variable name="C(286,22)" index="161970" value="1"/>
  <variable name="C(286,21)" index="161971" value="2"/>
  <variable name="C(297,26)" index="162032" value="1"/>
  <variable name="C(297,32)" index="162033" value="2"/>
  <variable name="C(297,6)" index="162034" value="3"/>
  <variable name="C(297,5)" index="162035" value="4"/>
  <variable name="C(298,7)" index="162040" value="1"/>
  <variable name="C(298,49)" index="162041" value="2"/>
  <variable name="C(298,50)" index="162042" value="3"/>
  <variable name="C(307,31)" index="162116" value="1"/>
  <variable name="C(307,23)" index="162117" value="2"/>
  <variable name="C(307,22)" index="162118" value="3"/>
  <variable name="C(313,29)" index="162185" value="1"/>
  <variable name="C(313,16)" index="162186" value="2"/>
  <variable name="C(317,20)" index="162235" value="1"/>
  <variable name="C(331,33)" index="162333" value="1"/>
  <variable name="C(331,34)" index="162334" value="2"/>
  <variable name="C(331,27)" index="162335" value="3"/>
  <variable name="C(376,33)" index="162596" value="1"/>
  <variable name="C(376,30)" index="162597" value="1.9999999999999991"/>
  <variable name="C(376,14)" index="162598" value="2.9999999999999991"/>
  <variable name="C(385,37)" index="162663" value="1"/>
  <variable name="C(387,26)" index="162671" value="1"/>
  <variable name="C(387,3)" index="162672" value="2"/>
  <variable name="C(387,47)" index="162673" value="3"/>
  <variable name="C(390,33)" index="162686" value="1"/>
  <variable name="C(390,32)" index="162687" value="2"/>
  <variable name="C(390,26)" index="162688" value="3"/>
  <variable name="C(390,1)" index="162689" value="4"/>
  <variable name="C(394,14)" index="162706" value="1"/>
  <variable name="C(394,10)" index="162707" value="1.9999999999999996"/>
  <variable name="C(394,5)" index="162708" value="2.9999999999999996"/>
  <variable name="C(394,8)" index="162709" value="4"/>
  <variable name="C(418,25)" index="162843" value="1"/>
  <variable name="C(418,42)" index="162844" value="2"/>
  <variable name="C(418,39)" index="162845" value="3"/>
  <variable name="C(418,10)" index="162846" value="4"/>
  <variable name="C(423,9)" index="162871" value="1"/>
  <variable name="C(423,10)" index="162872" value="2"/>
  <variable name="C(434,13)" index="162936" value="1"/>
  <variable name="C(441,23)" index="162980" value="0.99999999999999978"/>
  <variable name="C(462,14)" index="163084" value="1"/>
  <variable name="C(462,7)" index="163085" value="2"/>
  <variable name="C(473,11)" index="163154" value="0.99999999999999911"/>
  <variable name="C(473,12)" index="163155" value="1.9999999999999991"/>
  <variable name="C(473,15)" index="163156" value="2.9999999999999991"/>
  <variable name="C(481,39)" index="163188" value="1"/>
  <variable name="C(481,42)" index="163189" value="2"/>
  <variable name="C(483,55)" index="163198" value="1"/>
  <variable name="C(483,46)" index="163199" value="2"/>
  <variable name="C(496,4)" index="163260" value="1"/>
  <variable name="C(496,2)" index="163261" value="2"/>
  <variable name="C(498,7)" index="163266" value="1"/>
  <variable name="C(498,6)" index="163267" value="2"/>
  <variable name="C(512,54)" index="163380" value="1"/>
  <variable name="C(512,51)" index="163381" value="2"/>
  <variable name="C(512,14)" index="163382" value="3"/>
  <variable name="C(512,30)" index="163383" value="4"/>
  <variable name="C(519,43)" index="163424" value="1"/>
  <variable name="C(519,44)" index="163425" value="2"/>
  <variable name="C(533,3)" index="163511" value="1"/>
  <variable name="C(533,26)" index="163512" value="2"/>
  <variable name="C(533,34)" index="163513" value="3"/>
  <variable name="C(541,51)" index="163550" value="1"/>
  <variable name="C(546,49)" index="163574" value="1"/>
  <variable name="C(546,7)" index="163575" value="2"/>
  <variable name="C(546,32)" index="163576" value="3"/>
  <variable name="C(546,33)" index="163577" value="4"/>
  <variable name="C(566,20)" index="163691" value="1"/>
  <variable name="C(572,27)" index="163742" value="1"/>
  <variable name="C(573,16)" index="163752" value="1"/>
  <variable name="C(573,29)" index="163753" value="2"/>
  <variable name="C(575,31)" index="163768" value="1"/>
  <variable name="C(590,51)" index="163827" value="3"/>
  <variable name="C(590,54)" index="163828" value="4"/>
  <variable name="C(592,54)" index="163834" value="1"/>
  <variable name="C(592,46)" index="163835" value="2"/>
  <variable name="C(592,3)" index="163836" value="3"/>
 </variables>
</CPLEXSolution>
